nK = 905;
nT = 4;
nI = 7;
L = 35;
TT = 208;
np = 1;
nc = 3;
b = [24, 27, 24, 34, 68, 65, 33];
d = [46, 81, 36, 106, 120, 122, 140];
m = [1.7, 2, 1.7, 1, 2.3, 1.2, 1.2];
pt = [0.22, 0.35, 0.22, 0.35];
st = [10.34, 16.8, 8.8, 17.5];
arc = {<1, 0, 1, 1, 0, 0, 0, [1, 1, 1, 1]>, <2, 1, 2, 1, 0, 0, 0, [1, 1, 1, 1]>, <3, 2, 3, 1, 0, 0, 0, [1, 1, 1, 1]>, <4, 3, 4, 1, 0, 0, 0, [1, 1, 1, 1]>, <5, 4, 5, 1, 0, 0, 0, [1, 1, 1, 1]>, <6, 5, 6, 1, 0, 0, 0, [1, 1, 1, 1]>, <7, 6, 7, 1, 0, 0, 0, [1, 1, 1, 1]>, <8, 7, 8, 1, 0, 0, 0, [1, 1, 1, 1]>, <9, 8, 9, 1, 0, 0, 0, [1, 1, 1, 1]>, <10, 9, 10, 1, 0, 0, 0, [1, 1, 1, 1]>, <11, 10, 11, 1, 0, 0, 0, [1, 1, 1, 1]>, <12, 11, 12, 1, 0, 0, 0, [1, 1, 1, 1]>, <13, 12, 13, 1, 0, 0, 0, [1, 1, 1, 1]>, <14, 13, 14, 1, 0, 0, 0, [1, 1, 1, 1]>, <15, 14, 15, 1, 0, 0, 0, [1, 1, 1, 1]>, <16, 15, 16, 1, 0, 0, 0, [1, 1, 1, 1]>, <17, 16, 17, 1, 0, 0, 0, [1, 1, 1, 1]>, <18, 17, 18, 1, 0, 0, 0, [1, 1, 1, 1]>, <19, 18, 19, 1, 0, 0, 0, [1, 1, 1, 1]>, <20, 19, 20, 1, 0, 0, 0, [1, 1, 1, 1]>, <21, 20, 21, 1, 0, 0, 0, [1, 1, 1, 1]>, <22, 21, 22, 1, 0, 0, 0, [1, 1, 1, 1]>, <23, 22, 23, 1, 0, 0, 0, [1, 1, 1, 1]>, <24, 23, 24, 1, 0, 0, 0, [1, 1, 1, 1]>, <25, 24, 25, 1, 0, 0, 0, [1, 1, 1, 1]>, <26, 25, 26, 1, 0, 0, 0, [1, 1, 1, 1]>, <27, 26, 27, 1, 0, 0, 0, [1, 1, 1, 1]>, <28, 27, 28, 1, 0, 0, 0, [1, 1, 1, 1]>, <29, 28, 29, 1, 0, 0, 0, [1, 1, 1, 1]>, <30, 29, 30, 1, 0, 0, 0, [1, 1, 1, 1]>, <31, 30, 31, 1, 0, 0, 0, [1, 1, 1, 1]>, <32, 31, 32, 1, 0, 0, 0, [1, 1, 1, 1]>, <33, 32, 33, 1, 0, 0, 0, [1, 1, 1, 1]>, <34, 33, 34, 1, 0, 0, 0, [1, 1, 1, 1]>, <35, 34, 35, 1, 0, 0, 0, [1, 1, 1, 1]>, <36, 0, 19, 19, 1, 0, 1, [1, 1, 1, 0]>, <37, 1, 20, 19, 1, 0, 1, [1, 1, 1, 0]>, <38, 2, 21, 19, 1, 0, 1, [1, 1, 1, 0]>, <39, 3, 22, 19, 1, 0, 1, [1, 1, 1, 0]>, <40, 4, 23, 19, 1, 0, 1, [1, 1, 1, 0]>, <41, 5, 24, 19, 1, 0, 1, [1, 1, 1, 0]>, <42, 6, 25, 19, 1, 0, 1, [1, 1, 1, 0]>, <43, 7, 26, 19, 1, 0, 1, [1, 1, 1, 0]>, <44, 8, 27, 19, 1, 0, 1, [1, 1, 1, 0]>, <45, 9, 28, 19, 1, 0, 1, [1, 1, 1, 0]>, <46, 10, 29, 19, 1, 0, 1, [1, 1, 1, 0]>, <47, 11, 30, 19, 1, 0, 1, [1, 1, 1, 0]>, <48, 12, 31, 19, 1, 0, 1, [1, 1, 1, 0]>, <49, 13, 32, 19, 1, 0, 1, [1, 1, 1, 0]>, <50, 14, 33, 19, 1, 0, 1, [1, 1, 1, 0]>, <51, 15, 34, 19, 1, 0, 1, [1, 1, 1, 0]>, <52, 16, 35, 19, 1, 0, 1, [1, 1, 1, 0]>, <53, 0, 18, 18, 2, 0, 0, [1, 0, 1, 1]>, <54, 1, 19, 18, 2, 0, 0, [1, 0, 1, 1]>, <55, 2, 20, 18, 2, 0, 0, [1, 0, 1, 1]>, <56, 3, 21, 18, 2, 0, 0, [1, 0, 1, 1]>, <57, 4, 22, 18, 2, 0, 0, [1, 0, 1, 1]>, <58, 5, 23, 18, 2, 0, 0, [1, 0, 1, 1]>, <59, 6, 24, 18, 2, 0, 0, [1, 0, 1, 1]>, <60, 8, 26, 18, 2, 0, 0, [1, 0, 1, 1]>, <61, 9, 27, 18, 2, 0, 0, [1, 0, 1, 1]>, <62, 10, 28, 18, 2, 0, 0, [1, 0, 1, 1]>, <63, 11, 29, 18, 2, 0, 0, [1, 0, 1, 1]>, <64, 12, 30, 18, 2, 0, 0, [1, 0, 1, 1]>, <65, 13, 31, 18, 2, 0, 0, [1, 0, 1, 1]>, <66, 14, 32, 18, 2, 0, 0, [1, 0, 1, 1]>, <67, 15, 33, 18, 2, 0, 0, [1, 0, 1, 1]>, <68, 16, 34, 18, 2, 0, 0, [1, 0, 1, 1]>, <69, 17, 35, 18, 2, 0, 0, [1, 0, 1, 1]>, <70, 0, 21, 21, 3, 0, 1, [0, 1, 1, 1]>, <71, 1, 22, 21, 3, 0, 1, [0, 1, 1, 1]>, <72, 2, 23, 21, 3, 0, 1, [0, 1, 1, 1]>, <73, 3, 24, 21, 3, 0, 1, [0, 1, 1, 1]>, <74, 4, 25, 21, 3, 0, 1, [0, 1, 1, 1]>, <75, 5, 26, 21, 3, 0, 1, [0, 1, 1, 1]>, <76, 6, 27, 21, 3, 0, 1, [0, 1, 1, 1]>, <77, 7, 28, 21, 3, 0, 1, [0, 1, 1, 1]>, <78, 8, 29, 21, 3, 0, 1, [0, 1, 1, 1]>, <79, 9, 30, 21, 3, 0, 1, [0, 1, 1, 1]>, <80, 10, 31, 21, 3, 0, 1, [0, 1, 1, 1]>, <81, 11, 32, 21, 3, 0, 1, [0, 1, 1, 1]>, <82, 12, 33, 21, 3, 0, 1, [0, 1, 1, 1]>, <83, 13, 34, 21, 3, 0, 1, [0, 1, 1, 1]>, <84, 14, 35, 21, 3, 0, 1, [0, 1, 1, 1]>, <85, 0, 19, 19, 4, 0, 1, [1, 1, 1, 0]>, <86, 1, 20, 19, 4, 0, 1, [1, 1, 1, 0]>, <87, 2, 21, 19, 4, 0, 1, [1, 1, 1, 0]>, <88, 3, 22, 19, 4, 0, 1, [1, 1, 1, 0]>, <89, 4, 23, 19, 4, 0, 1, [1, 1, 1, 0]>, <90, 5, 24, 19, 4, 0, 1, [1, 1, 1, 0]>, <91, 6, 25, 19, 4, 0, 1, [1, 1, 1, 0]>, <92, 7, 26, 19, 4, 0, 1, [1, 1, 1, 0]>, <93, 8, 27, 19, 4, 0, 1, [1, 1, 1, 0]>, <94, 9, 28, 19, 4, 0, 1, [1, 1, 1, 0]>, <95, 10, 29, 19, 4, 0, 1, [1, 1, 1, 0]>, <96, 11, 30, 19, 4, 0, 1, [1, 1, 1, 0]>, <97, 12, 31, 19, 4, 0, 1, [1, 1, 1, 0]>, <98, 13, 32, 19, 4, 0, 1, [1, 1, 1, 0]>, <99, 14, 33, 19, 4, 0, 1, [1, 1, 1, 0]>, <100, 15, 34, 19, 4, 0, 1, [1, 1, 1, 0]>, <101, 16, 35, 19, 4, 0, 1, [1, 1, 1, 0]>, <102, 0, 17, 17, 5, 0, 0, [1, 1, 0, 1]>, <103, 1, 18, 17, 5, 0, 0, [1, 1, 0, 1]>, <104, 2, 19, 17, 5, 0, 0, [1, 1, 0, 1]>, <105, 3, 20, 17, 5, 0, 0, [1, 1, 0, 1]>, <106, 4, 21, 17, 5, 0, 0, [1, 1, 0, 1]>, <107, 5, 22, 17, 5, 0, 0, [1, 1, 0, 1]>, <108, 6, 23, 17, 5, 0, 0, [1, 1, 0, 1]>, <109, 9, 26, 17, 5, 0, 0, [1, 1, 0, 1]>, <110, 10, 27, 17, 5, 0, 0, [1, 1, 0, 1]>, <111, 11, 28, 17, 5, 0, 0, [1, 1, 0, 1]>, <112, 12, 29, 17, 5, 0, 0, [1, 1, 0, 1]>, <113, 13, 30, 17, 5, 0, 0, [1, 1, 0, 1]>, <114, 14, 31, 17, 5, 0, 0, [1, 1, 0, 1]>, <115, 15, 32, 17, 5, 0, 0, [1, 1, 0, 1]>, <116, 16, 33, 17, 5, 0, 0, [1, 1, 0, 1]>, <117, 17, 34, 17, 5, 0, 0, [1, 1, 0, 1]>, <118, 18, 35, 17, 5, 0, 0, [1, 1, 0, 1]>, <119, 0, 22, 22, 6, 0, 1, [1, 0, 1, 1]>, <120, 1, 23, 22, 6, 0, 1, [1, 0, 1, 1]>, <121, 2, 24, 22, 6, 0, 1, [1, 0, 1, 1]>, <122, 3, 25, 22, 6, 0, 1, [1, 0, 1, 1]>, <123, 4, 26, 22, 6, 0, 1, [1, 0, 1, 1]>, <124, 5, 27, 22, 6, 0, 1, [1, 0, 1, 1]>, <125, 6, 28, 22, 6, 0, 1, [1, 0, 1, 1]>, <126, 7, 29, 22, 6, 0, 1, [1, 0, 1, 1]>, <127, 8, 30, 22, 6, 0, 1, [1, 0, 1, 1]>, <128, 9, 31, 22, 6, 0, 1, [1, 0, 1, 1]>, <129, 10, 32, 22, 6, 0, 1, [1, 0, 1, 1]>, <130, 11, 33, 22, 6, 0, 1, [1, 0, 1, 1]>, <131, 12, 34, 22, 6, 0, 1, [1, 0, 1, 1]>, <132, 13, 35, 22, 6, 0, 1, [1, 0, 1, 1]>, <133, 0, 21, 21, 7, 0, 0, [1, 1, 1, 0]>, <134, 1, 22, 21, 7, 0, 0, [1, 1, 1, 0]>, <135, 2, 23, 21, 7, 0, 0, [1, 1, 1, 0]>, <136, 3, 24, 21, 7, 0, 0, [1, 1, 1, 0]>, <137, 4, 25, 21, 7, 0, 0, [1, 1, 1, 0]>, <138, 5, 26, 21, 7, 0, 0, [1, 1, 1, 0]>, <139, 6, 27, 21, 7, 0, 0, [1, 1, 1, 0]>, <140, 7, 28, 21, 7, 0, 0, [1, 1, 1, 0]>, <141, 8, 29, 21, 7, 0, 0, [1, 1, 1, 0]>, <142, 9, 30, 21, 7, 0, 0, [1, 1, 1, 0]>, <143, 10, 31, 21, 7, 0, 0, [1, 1, 1, 0]>, <144, 11, 32, 21, 7, 0, 0, [1, 1, 1, 0]>, <145, 12, 33, 21, 7, 0, 0, [1, 1, 1, 0]>, <146, 13, 34, 21, 7, 0, 0, [1, 1, 1, 0]>, <147, 14, 35, 21, 7, 0, 0, [1, 1, 1, 0]>};
